webassembly/ejemplos_dzn/11/folder11_json_48.dzn
TERM = { '.', 's(5)', 's(2)', 's(4)', 'in_1', 'local_0', 'in_2', 'in_4', 'in_3', 's(8)', 's(6)', 's(1)', 's(0)', 's(7)', 's(3)', 'in_0'};
null = '.';
s = 11;
n = 10;
ndeps = 5;
max_registers_sz = 4;
NR = 1;
registers = [|'local_0', 'in_1'|];
dependencies = [|'i32.load8_s_0', 'call[function_index(0)]_3', |'call[function_index(0)]_3', 'call[function_index(1)]_4', |'call[function_index(1)]_4', 'i32.load16_u_5', |'i32.store16_8', 'i32.load16_s_10', |'i32.load16_u_5', 'i32.store16_8'|];
GET_ENUM = { GET1, GET2, GET3, GET4, GET5};
SET_ENUM = { SET1, SET2, SET3, SET4, SET5};
TEE_ENUM = { TEE1, TEE2, TEE3, TEE4, TEE5};
N = 7;
OP = { 'call[function_index(0)]_3', 'call[function_index(1)]_4', 'i32.load8_s_0', 'i32.load16_u_5', 'i32.store16_8', 'i32.const_0', 'i32.load16_s_10' };
in_ops = [3, 3, 1, 1, 2, 0, 1 ];
out_ops = [3, 2, 1, 1, 0, 1, 1 ];
in1 = ['in_2', 's(3)', 'in_0', 's(5)', 'in_1', '.', 's(8)' ];
in2 = ['in_3', 's(2)', '.', '.', 's(6)', '.', '.' ];
in3 = ['in_4', 's(1)', '.', '.', '.', '.', '.' ];
out1 = ['s(3)', 's(5)', 's(0)', 's(6)', '.', 's(8)', 's(7)' ];
out2 = ['s(2)', 's(4)', '.', '.', '.', '.', '.' ];
out3 = ['s(1)', '.', '.', '.', '.', '.', '.' ];
comm = [false, false, false, false, false, false, false ];
gas = [1, 1, 1, 1, 1, 1, 1 ];
sz = [1, 1, 1, 1, 1, 1, 1 ];
stor = [true, true, false, false, true, false, false ];
lb = [ 1, 1, 1, 1, 1, 1, 1 ];
ub = [ 11, 11, 11, 11, 11, 11, 11 ];
startstack = [ 'in_0', 'in_1', 'in_2', 'in_3', 'in_4', null, null, null, null, null ];
endstack = [ 's(7)', 's(4)', null, null, null, null, null, null, null, null ];
