webassembly/ejemplos_results/11/folder11_json_48.txt
value = 11;
fgas = [1, 2, 1, 1, 1, 1, 1, 1, 1, 1, 1];
fsize = [1, 1, 1, 1, 1, 1, 1, 1, 1, 1, 1];
states = 
[|   in_0,   in_1,   in_2, in_3, in_4, '.', '.', '.', '.',  '.'
 | 's(0)',   in_1,   in_2, in_3, in_4, '.', '.', '.', '.',  '.'
 |   in_1,   in_2,   in_3, in_4,  '.', '.', '.', '.', '.',  '.'
 |   in_2,   in_3,   in_4,  '.',  '.', '.', '.', '.', '.',  '.'
 | 's(3)', 's(2)', 's(1)', in_0,  '.', '.', '.', '.', '.',  '.'
 | 's(5)', 's(4)', 's(6)',  '.',  '.', '.', '.', '.', '.',  '.'
 | 's(6)',   in_1, 's(6)',  '.',  '.', '.', '.', '.', '.',  '.'
 |   in_1, 's(6)',    '.',  '.',  '.', '.', '.', '.', '.',  '.'
 |   in_0,    '.',    '.',  '.',  '.', '.', '.', '.', '.', in_0
 | 's(0)',    '.',    '.',  '.',  '.', '.', '.', '.', '.', in_0
 | 's(8)',   in_0,    '.',  '.',  '.', '.', '.', '.', '.',  '.'
 | 's(7)', 's(4)',    '.',  '.',  '.', '.', '.', '.', '.',  '.'
 |];
register_states = 
[| local_0, '.', '.', '.', '.'
 | local_0, '.', '.', '.', '.'
 | local_0, '.', '.', '.', '.'
 |    in_1, '.', '.', '.', '.'
 |    in_1, '.', '.', '.', '.'
 |    in_1, '.', '.', '.', '.'
 |    in_1, '.', '.', '.', '.'
 |    in_1, '.', '.', '.', '.'
 |    in_1, '.', '.', '.', '.'
 |    in_1, '.', '.', '.', '.'
 |    in_1, '.', '.', '.', '.'
 |    in_1, '.', '.', '.', '.'
 |];
program = [O('i32.load8_s_0'), POP, S(SET1), O('call[function_index(0)]_3'), O('call[function_index(1)]_4'), O('i32.load16_u_5'), G(GET1), O('i32.store16_8'), O('i32.load8_s_0'), O('i32.const_0'), O('i32.load16_s_10')];
% time elapsed: 0.18 s
----------
value = 10;
fgas = [1, 1, 1, 1, 1, 1, 2, 1, 1, 1, 0];
fsize = [1, 1, 1, 1, 1, 1, 1, 1, 1, 1, 1];
states = 
[|   in_0,   in_1,   in_2, in_3, in_4, '.', '.', '.', '.',    '.'
 | 's(0)',   in_1,   in_2, in_3, in_4, '.', '.', '.', '.',    '.'
 |   in_1,   in_2,   in_3, in_4,  '.', '.', '.', '.', '.',    '.'
 |   in_2,   in_3,   in_4,  '.',  '.', '.', '.', '.', '.',    '.'
 | 's(3)', 's(2)', 's(1)', in_0,  '.', '.', '.', '.', '.',    '.'
 | 's(5)', 's(4)', 's(6)',  '.',  '.', '.', '.', '.', '.',    '.'
 | 's(6)',   in_1, 's(6)',  '.',  '.', '.', '.', '.', '.',    '.'
 |   in_1, 's(6)',    '.',  '.',  '.', '.', '.', '.', '.',    '.'
 |   in_0,    '.',    '.',  '.',  '.', '.', '.', '.', '.', 's(3)'
 | 's(8)',   in_0,    '.',  '.',  '.', '.', '.', '.', '.',    '.'
 | 's(7)', 's(4)',    '.',  '.',  '.', '.', '.', '.', '.',    '.'
 | 's(7)', 's(4)',    '.',  '.',  '.', '.', '.', '.', '.',    '.'
 |];
register_states = 
[| local_0, '.', '.', '.', '.'
 | local_0, '.', '.', '.', '.'
 |  's(0)', '.', '.', '.', '.'
 |    in_1, '.', '.', '.', '.'
 |    in_1, '.', '.', '.', '.'
 |    in_1, '.', '.', '.', '.'
 |    in_1, '.', '.', '.', '.'
 |    in_1, '.', '.', '.', '.'
 |    in_1, '.', '.', '.', '.'
 |    in_1, '.', '.', '.', '.'
 |    in_1, '.', '.', '.', '.'
 |    in_1, '.', '.', '.', '.'
 |];
program = [O('i32.load8_s_0'), S(SET1), S(SET1), O('call[function_index(0)]_3'), O('call[function_index(1)]_4'), O('i32.load16_u_5'), POP, O('i32.store16_8'), O('i32.const_0'), O('i32.load16_s_10'), NOP];
% time elapsed: 0.19 s
----------
==========
% time elapsed: 0.19 s
% [value > 9]
